NAME          
ROWS
 N  OBJ
 L  c1
COLUMNS
    MARKER    'MARKER'                 'INTORG'
    x[1]      c1        450
    x[1]      OBJ       -914
    x[2]      c1        630
    x[2]      OBJ       -925
    x[3]      c1        802
    x[3]      OBJ       -902
    x[4]      c1        991
    x[4]      OBJ       -989
    x[5]      c1        83
    x[5]      OBJ       -36
    x[6]      c1        275
    x[6]      OBJ       -629
    x[7]      c1        491
    x[7]      OBJ       -727
    x[8]      c1        297
    x[8]      OBJ       -409
    x[9]      c1        351
    x[9]      OBJ       -563
    x[10]     c1        106
    x[10]     OBJ       -703
    x[11]     c1        960
    x[11]     OBJ       -363
    x[12]     c1        506
    x[12]     OBJ       -240
    x[13]     c1        878
    x[13]     OBJ       -774
    x[14]     c1        958
    x[14]     OBJ       -708
    x[15]     c1        253
    x[15]     OBJ       -282
    x[16]     c1        876
    x[16]     OBJ       -273
    x[17]     c1        573
    x[17]     OBJ       -590
    x[18]     c1        651
    x[18]     OBJ       -207
    x[19]     c1        556
    x[19]     OBJ       -128
    x[20]     c1        404
    x[20]     OBJ       -74
    x[21]     c1        988
    x[21]     OBJ       -147
    x[22]     c1        4
    x[22]     OBJ       -281
    x[23]     c1        343
    x[23]     OBJ       -238
    x[24]     c1        141
    x[24]     OBJ       -112
    x[25]     c1        542
    x[25]     OBJ       -781
    x[26]     c1        993
    x[26]     OBJ       -246
    x[27]     c1        810
    x[27]     OBJ       -725
    x[28]     c1        515
    x[28]     OBJ       -719
    x[29]     c1        211
    x[29]     OBJ       -500
    x[30]     c1        218
    x[30]     OBJ       -654
    x[31]     c1        707
    x[31]     OBJ       -363
    x[32]     c1        131
    x[32]     OBJ       -575
    x[33]     c1        307
    x[33]     OBJ       -742
    x[34]     c1        363
    x[34]     OBJ       -510
    x[35]     c1        524
    x[35]     OBJ       -354
    x[36]     c1        603
    x[36]     OBJ       -539
    x[37]     c1        596
    x[37]     OBJ       -189
    x[38]     c1        165
    x[38]     OBJ       -285
    x[39]     c1        129
    x[39]     OBJ       -348
    x[40]     c1        612
    x[40]     OBJ       -378
RHS
    rhs       c1        9996
RANGES
BOUNDS
 BV bounds    x[1]
 BV bounds    x[2]
 BV bounds    x[3]
 BV bounds    x[4]
 BV bounds    x[5]
 BV bounds    x[6]
 BV bounds    x[7]
 BV bounds    x[8]
 BV bounds    x[9]
 BV bounds    x[10]
 BV bounds    x[11]
 BV bounds    x[12]
 BV bounds    x[13]
 BV bounds    x[14]
 BV bounds    x[15]
 BV bounds    x[16]
 BV bounds    x[17]
 BV bounds    x[18]
 BV bounds    x[19]
 BV bounds    x[20]
 BV bounds    x[21]
 BV bounds    x[22]
 BV bounds    x[23]
 BV bounds    x[24]
 BV bounds    x[25]
 BV bounds    x[26]
 BV bounds    x[27]
 BV bounds    x[28]
 BV bounds    x[29]
 BV bounds    x[30]
 BV bounds    x[31]
 BV bounds    x[32]
 BV bounds    x[33]
 BV bounds    x[34]
 BV bounds    x[35]
 BV bounds    x[36]
 BV bounds    x[37]
 BV bounds    x[38]
 BV bounds    x[39]
 BV bounds    x[40]
ENDATA
